Route #1: 43
Route #2: 30 52 16 4
Route #3: 28 5 7 39 50 49 29 15 35 23 20 18
Route #4: 10 17 26 45 1 36 38 13 32
Route #5: 6 11 53 3 44
Route #6: 34 41 25 47 51 42 24 46 12 2
Route #7: 14 27 37 48 40 8
Route #8: 19 31 22 9 33 21
cost: 1312.457144929584
